NAME : 1c5b3965-b268-45ff-b371-170b9d9346a7.tsptw.4528.tour
COMMENT : Length = 4528
COMMENT : Found by LKH [Keld Helsgaun] Wed Jan 29 18:14:25 2020
TYPE : TOUR
DIMENSION : 8
TOUR_SECTION
1
3
8
4
2
6
7
5
-1
EOF
